$molecule
0 1
H 0 0 0
H 0 0 0.74
$end

$rem
method	ccsd
basis	3-21g
$end
