$molecule
0 1
Be
$end

$rem
method = hf
basis = 6-31g
$end
