$molecule
0 1
Be1
Be2 Be1 10000.0
$end

$rem
method = hf
basis = 6-31g
$end
