$molecule
0 1 
Be   0.0   0.0   0.0
Be   0.0   0.0   3.69
$end

$rem
exchange      HF
basis         gen
$end

$basis
BE    0
S   3  1.00
     30.16787100      0.15432897
      5.49511530      0.53532814
      1.48719270      0.44463454
S   3  1.00
      1.31483310     -0.09996723      
      0.30553890      0.39951283      
      0.09937070      0.70011547                                            
****
$end

