$molecule
0 1
Be1
Be2 Be1 2.6
$end

$rem
method = hf
basis = 6-31g
$end
