$molecule
-1 2
Gh   0.0   0.0   0.0
$end
$rem
exchange      HF
basis         6-31g
$end
$external_charges
1.0   0.0   0.0   1.0
$end