$molecule
-2 3
H   0.0   0.0   0.0
H   0.0   0.0   1.0
$end

$rem
exchange      HF
basis         6-31g
$end
