$molecule
0 3
O   0.0   0.0   0.0
O   0.0   0.0   1.0
$end

$rem
exchange      HF
basis         6-31g
$end
