memory 24 Gb
molecule be2 {
0 1
Be   0.0    0.0 0.0
Be   5.8    0.0 0.0
units angstrom    
}

set basis 6-31g
set freeze_core true
set PRINT_BASIS True
set PUREAM False
set E_CONVERGENCE 1e-14
energy('ccsd(t)')
