$molecule
0 1
H	0.0	0.0	0.0
He	0.0	0.0	0.0
Li	0.0	0.0	0.0
Be	0.0	0.0	0.0
B	0.0	0.0	0.0
C	0.0	0.0	0.0
N	0.0	0.0	0.0
O	0.0	0.0	0.0
F	0.0	0.0	0.0
Ne	0.0	0.0	0.0
Na	0.0	0.0	0.0
Mg	0.0	0.0	0.0
Al	0.0	0.0	0.0
Si	0.0	0.0	0.0
P	0.0	0.0	0.0
S	0.0	0.0	0.0
Cl	0.0	0.0	0.0
Ar	0.0	0.0	0.0
K	0.0	0.0	0.0
Ca	0.0	0.0	0.0
Sc	0.0	0.0	0.0
Ti	0.0	0.0	0.0
V	0.0	0.0	0.0
Cr	0.0	0.0	0.0
Mn	0.0	0.0	0.0
Fe	0.0	0.0	0.0
Co	0.0	0.0	0.0
Ni	0.0	0.0	0.0
Cu	0.0	0.0	0.0
Zn	0.0	0.0	0.0
$end

$rem
exchange      HF
basis         6-31g
$end
