$molecule
0 1
He  0.0  0.0  0.0
$end
$rem
exchange      HF
basis         6-31g-uncontracted
correlation   mp2
$end