
memory 10 Gb
molecule be {
0 1
Be  0.0  0.0  0.0
units angstrom    
}

set basis 6-31g
set freeze_core true
set PRINT_BASIS True
set PUREAM False
set E_CONVERGENCE 1e-14
energy('fci')
