$molecule
0 2
H 0 0 0
$end

$rem
method	hf
basis	sto-3g
$end
