$molecule
0 1
H 0 0 0
H 0 0 1
$end

$rem
method	hf
basis	sto-3g
$end
