$molecule
0 1
He 0 0 0
$end

$rem
method	hf
basis	sto-3g
$end
